n_res = 4;
rcap = [17, 12, 79, 97];
rtype = [1, 1, 2, 2];
n_tasks = 16;
modes = [ {1, 2, 3}, {4, 5, 6}, {7, 8, 9}, {10, 11, 12}, {13, 14, 15}, {16, 17, 18}, {19, 20, 21}, {22, 23, 24}, {25, 26, 27}, {28, 29, 30}, {31, 32, 33}, {34, 35, 36}, {37, 38, 39}, {40, 41, 42}, {43, 44, 45}, {46, 47, 48} ];
succ = [ {4, 5, 6}, {4, 7, 8}, {5, 6, 13}, {10, 11, 13}, {7, 12}, {7, 9, 11}, {15}, {10, 11, 13}, {10, 12, 14}, {15, 16}, {12, 14}, {16}, {14, 15, 16}, {}, {}, {} ];
n_opt = 48;
dur = [2, 2, 5, 2, 3, 8, 1, 1, 7, 1, 3, 6, 2, 8, 9, 3, 4, 7, 2, 6, 7, 1, 5, 10, 3, 3, 7, 3, 3, 9, 3, 6, 8, 2, 3, 8, 4, 6, 7, 6, 6, 7, 7, 7, 9, 5, 9, 9];
rreq = [|  5,  3,  0,  0,  4,  0,  4,  0,  0,  0, 10, 10,  7,  0,  4,  8,  7,  0,  9,  8,  0,  0,  0,  0,  9,  0,  8,  8,  6,  6,  4,  4,  0,  2,  0,  0,  0,  3,  0,  0,  7,  0,  0,  7,  0,  0,  5,  0
        |  0,  0,  9,  6,  0,  4,  0,  8,  6,  5,  0,  0,  0,  5,  0,  0,  0,  2,  0,  0,  3,  3,  2,  1,  0,  4,  0,  0,  0,  0,  0,  0,  8,  0,  2,  2,  8,  0,  4,  7,  0,  7,  8,  0,  8,  3,  0,  2
        |  3,  4,  3,  5,  5,  5,  7,  5,  3,  4,  4,  3,  4,  4,  2,  7,  6,  4,  7,  6,  6,  6,  5,  5, 10, 10,  7,  9,  8,  5,  9,  6,  5,  7,  7,  4,  7,  6,  6,  5,  5,  3,  6,  8,  4,  6,  5,  5
        | 10, 10,  8,  7,  4,  4,  6,  6,  4,  3,  2,  1,  8,  7,  7,  8,  8,  7, 10,  8,  8,  7,  4,  4,  6,  6,  3,  6,  9,  3,  9,  8,  8,  5,  4,  4,  9,  9,  9,  8,  8,  8, 10, 10,  9,  6,  2,  4 |];
